language Essence 1.3

letting blksize_delta be
        function(1 --> 10, 2 --> 10, 3 --> 10, 4 --> 10, 5 --> 10, 6 --> 10, 7 --> 10, 8 --> 10, 9 --> 10, 10 --> 10,
                 11 --> 10, 12 --> 10, 13 --> 10, 14 --> 10, 15 --> 10, 16 --> 10, 17 --> 10, 18 --> 10, 19 --> 10,
                 20 --> 10, 21 --> 10, 22 --> 10, 23 --> 10, 24 --> 10, 25 --> 10, 26 --> 10, 27 --> 10, 28 --> 10)
letting maxcars be
        function(1 --> 9, 2 --> 9, 3 --> 10, 4 --> 9, 5 --> 9, 6 --> 9, 7 --> 9, 8 --> 9, 9 --> 9, 10 --> 9, 11 --> 9,
                 12 --> 9, 13 --> 9, 14 --> 9, 15 --> 9, 16 --> 9, 17 --> 10, 18 --> 9, 19 --> 9, 20 --> 9, 21 --> 10,
                 22 --> 10, 23 --> 9, 24 --> 9, 25 --> 9, 26 --> 10, 27 --> 9, 28 --> 9)
letting n_cars be 152
letting n_classes be 37
letting n_options be 28
letting quantity be
        function(1 --> 4, 2 --> 5, 3 --> 4, 4 --> 4, 5 --> 4, 6 --> 4, 7 --> 4, 8 --> 4, 9 --> 4, 10 --> 4, 11 --> 5,
                 12 --> 4, 13 --> 4, 14 --> 4, 15 --> 4, 16 --> 4, 17 --> 4, 18 --> 4, 19 --> 4, 20 --> 4, 21 --> 4,
                 22 --> 4, 23 --> 4, 24 --> 5, 25 --> 4, 26 --> 4, 27 --> 4, 28 --> 4, 29 --> 4, 30 --> 4, 31 --> 5,
                 32 --> 4, 33 --> 4, 34 --> 4, 35 --> 4, 36 --> 4, 37 --> 4)
letting usage be
        relation((1, 13), (1, 15), (1, 22), (1, 28), (2, 8), (2, 10), (3, 3), (4, 2), (4, 5), (4, 21), (4, 24), (4, 27),
                 (5, 4), (5, 18), (6, 2), (6, 17), (6, 19), (6, 25), (7, 28), (8, 5), (8, 17), (9, 22), (9, 28),
                 (10, 1), (10, 18), (10, 20), (11, 9), (11, 12), (12, 6), (12, 20), (12, 23), (12, 26), (13, 5),
                 (13, 6), (13, 7), (13, 14), (13, 23), (14, 2), (14, 4), (14, 15), (14, 16), (14, 18), (15, 1),
                 (15, 18), (15, 20), (15, 24), (15, 28), (16, 13), (16, 18), (17, 28), (18, 15), (19, 9), (19, 14),
                 (19, 21), (20, 2), (20, 15), (20, 16), (21, 15), (21, 23), (21, 25), (21, 28), (22, 10), (22, 19),
                 (22, 25), (23, 9), (23, 18), (24, 9), (24, 11), (24, 18), (24, 23), (24, 28), (25, 12), (25, 17),
                 (26, 28), (27, 12), (28, 7), (28, 8), (28, 27), (28, 28), (29, 5), (29, 21), (29, 22), (30, 2),
                 (30, 15), (30, 21), (30, 22), (31, 2), (31, 17), (31, 28), (32, 1), (32, 3), (32, 4), (32, 17),
                 (32, 20), (32, 24), (32, 25), (33, 9), (33, 10), (33, 16), (34, 11), (34, 12), (34, 14), (34, 15),
                 (34, 18), (35, 6), (35, 8), (35, 14), (35, 26), (36, 11), (37, 15), (37, 19), (37, 24), (37, 27))
$ Visualisation for usage
$  1 13
$  1 15
$  1 22
$  1 28
$  2  8
$  2 10
$  3  3
$  4  2
$  4  5
$  4 21
$  4 24
$  4 27
$  5  4
$  5 18
$  6  2
$  6 17
$  6 19
$  6 25
$  7 28
$  8  5
$  8 17
$  9 22
$  9 28
$ 10  1
$ 10 18
$ 10 20
$ 11  9
$ 11 12
$ 12  6
$ 12 20
$ 12 23
$ 12 26
$ 13  5
$ 13  6
$ 13  7
$ 13 14
$ 13 23
$ 14  2
$ 14  4
$ 14 15
$ 14 16
$ 14 18
$ 15  1
$ 15 18
$ 15 20
$ 15 24
$ 15 28
$ 16 13
$ 16 18
$ 17 28
$ 18 15
$ 19  9
$ 19 14
$ 19 21
$ 20  2
$ 20 15
$ 20 16
$ 21 15
$ 21 23
$ 21 25
$ 21 28
$ 22 10
$ 22 19
$ 22 25
$ 23  9
$ 23 18
$ 24  9
$ 24 11
$ 24 18
$ 24 23
$ 24 28
$ 25 12
$ 25 17
$ 26 28
$ 27 12
$ 28  7
$ 28  8
$ 28 27
$ 28 28
$ 29  5
$ 29 21
$ 29 22
$ 30  2
$ 30 15
$ 30 21
$ 30 22
$ 31  2
$ 31 17
$ 31 28
$ 32  1
$ 32  3
$ 32  4
$ 32 17
$ 32 20
$ 32 24
$ 32 25
$ 33  9
$ 33 10
$ 33 16
$ 34 11
$ 34 12
$ 34 14
$ 34 15
$ 34 18
$ 35  6
$ 35  8
$ 35 14
$ 35 26
$ 36 11
$ 37 15
$ 37 19
$ 37 24
$ 37 27

